2551416
6 20 207524
20 11 34793
11 5 43367
5 9 150560
9 12 50022
12 13 95140
13 17 27808
17 3 20583
3 2 14476
2 1 106843
1 7 35813
7 14 341872
14 18 103707
18 8 112034
8 10 125856
10 16 21151
16 4 223221
4 15 234495
15 19 105167
19 6 496986
